(set-logic QF_S)
(declare-fun var0 () String)
(declare-fun var1 () String)
(declare-fun var2 () String)
(declare-fun var3 () String)
(declare-fun var4 () Int)
(declare-fun var5 () Int)
(declare-fun var6 () Int)
(declare-fun var7 () Int)
(assert (str.contains (str.replace var0 "" var1) (str.replace var2 "FAf" var3)))
(assert (str.suffixof (str.replace (str.replace var1 var0 var1) (str.at var3 var4) (str.at var1 var5)) (str.at "8z" var6)))
(assert (str.prefixof var0 var3))
(assert (< (str.indexof var2 var2 var7) (str.indexof (str.substr var1 var7 var6) (str.substr var0 var4 var7) (str.len var0))))
(check-sat)